DIMENSION : 10
N_TRUCKS: 7
BATTERY_SPEED: 1000 
CAPACITY : 100
NODE_COORD_SECTION 
 1 11 83
 2 37 61
 3 77 81
 4 35 21
 5 1 93
 6 21 39
 7 63 7
 8 97 95
 9 3 7
 10 5 3
DEMAND_SECTION 
1 0 
2 2 
3 1 
4 3 
5 9 
6 13 
7 21 
8 6 
9 22 
10 10 
DEPOT_SECTION 
 1  
 -1  
EOF 
